Generated by VASPKIT code
 1.000000
    3.1836321071000002    0.0000000000000000    0.0000000000000000
   -1.5918160535499997    2.7573187351000006    0.0000000000000000
    0.0000000000000014    0.0000000000000025   23.1299991608000006
   Mo   S 
     1     2
Direct
    0.5666967039999999    0.1333483460000000    0.5000000000000000    Mo001
    0.8999849540000000    0.7999924420000000    0.4323979620000000     S001
    0.8999849540000000    0.7999924420000000    0.5676020380000000     S002
